27903.0
12,20,29,46,74,76,85,89,96,106,113,120,141,147,157,163,169,203,204,232,233,237,242,265,268,271,273,292,302,307,323,343,375,391,422,423,432,479,483,487,490,498,505,508,524,533,537,538,546,562,567,583,584,597,606,637,659,663,668,675,694,721,757,758,764,767,799,833,838,842,849,852,855,883,892,895,909,921,926,927,938,946,952,959,986,988,994,1001,1007,1078,1097,1100,1105,1109,1119,1141,1146,1159,1165,1167,1170,1189,1193,1196,1198,1203,1205,1206,1224,1261,1267,1273,1286,1309,1314,1338,1344,1345,1346,1351,1353,1367,1369,1376,1379,1385,1406,1411,1416,1436,1451,1463,1464,1467,1471,1472,1474,1478,1486,1491,1540,1550,1555,1561,1567,1572,1599,1605,1614,1617,1623,1637,1644,1648,1656,1660,1676,1679,1681,1689,1690,1695,1698,1731,1733,1759,1764,1774,1834,1835,1849,1874,1877,1890,1899,1945,1968,1974,1978,1984,1993